
;this file is automatically generated: Wed Feb 26 14:38:42 CST 2020

;declarations generated

(declare-fun obj_94ee9cc9_7e29_4eaa_a9a6_8466dcc0a733 ( Int) Int)
(declare-fun oclExcludes ( Int Int) Bool)
(declare-fun type_a5899c6b_1b75_4be1_8d09_1741e5957d12_Class22 ( Int) Bool)
(declare-fun Cardinality ( Int) Int)
(declare-fun type_a5899c6b_1b75_4be1_8d09_1741e5957d12_Class11 ( Int) Bool)
(declare-fun type_a5899c6b_1b75_4be1_8d09_1741e5957d12_Class13 ( Int) Bool)
(declare-fun oclSelect ( Int Bool) Int)
(declare-fun class22_Class22IntAttr1 ( Int) Int)
(declare-fun Enum0 ( Int) Int)
(declare-fun Enum1 ( Int) Int)
(declare-fun container_ ( Int) Int)
(declare-fun class22_Class22BoolAttr0 ( Int) Bool)
(declare-fun oclIncludes ( Int Int) Bool)
(declare-fun ObjAt ( Int Int) Int)

;formula(s) generated
(assert (forall ((p Int)) (=> ( type_a5899c6b_1b75_4be1_8d09_1741e5957d12_Class22 p )  (and (>= ( Enum1 ( obj_94ee9cc9_7e29_4eaa_a9a6_8466dcc0a733 p )  )  0) (<= ( Enum1 ( obj_94ee9cc9_7e29_4eaa_a9a6_8466dcc0a733 p )  )  6)))))
(assert (! (forall ((v Int)) (=> (and (and ( type_a5899c6b_1b75_4be1_8d09_1741e5957d12_Class22 v )  ( type_a5899c6b_1b75_4be1_8d09_1741e5957d12_Class11 v ) ) ( type_a5899c6b_1b75_4be1_8d09_1741e5957d12_Class13 v ) ) (or (>= ( class22_Class22IntAttr1 ( obj_94ee9cc9_7e29_4eaa_a9a6_8466dcc0a733 v )  )  18) (and (forall ((v Int)) (=> (and (and ( type_a5899c6b_1b75_4be1_8d09_1741e5957d12_Class22 v )  ( type_a5899c6b_1b75_4be1_8d09_1741e5957d12_Class11 v ) ) ( type_a5899c6b_1b75_4be1_8d09_1741e5957d12_Class13 v ) ) (= ( Enum1 ( obj_94ee9cc9_7e29_4eaa_a9a6_8466dcc0a733 v )  )  5))) (forall ((v Int)) (=> (and (and ( type_a5899c6b_1b75_4be1_8d09_1741e5957d12_Class22 v )  ( type_a5899c6b_1b75_4be1_8d09_1741e5957d12_Class11 v ) ) ( type_a5899c6b_1b75_4be1_8d09_1741e5957d12_Class13 v ) ) ( class22_Class22BoolAttr0 ( obj_94ee9cc9_7e29_4eaa_a9a6_8466dcc0a733 v )  ) )))))):named l0))
(assert (exists ((o Int)) (and (and ( type_a5899c6b_1b75_4be1_8d09_1741e5957d12_Class22 ( obj_94ee9cc9_7e29_4eaa_a9a6_8466dcc0a733 o )  )  ( type_a5899c6b_1b75_4be1_8d09_1741e5957d12_Class11 ( obj_94ee9cc9_7e29_4eaa_a9a6_8466dcc0a733 o )  ) ) ( type_a5899c6b_1b75_4be1_8d09_1741e5957d12_Class13 ( obj_94ee9cc9_7e29_4eaa_a9a6_8466dcc0a733 o )  ) )))

 ;end of formula 